72
ZNGLUD_clean
Zn         2.68656        7.10228        2.34095
Zn         6.29656        3.36072        3.25405
Zn         0.92344        1.87078        8.84905
Zn         4.53344        8.59222        7.93595
H          2.89522        4.81298        5.32644
H          0.93138        5.26289        6.42306
H          1.79056        6.58123        6.70281
H          6.85900        6.61262        4.77813
H          0.86640        7.92049        5.10264
H          3.96378        6.61262        4.24101
H          2.87356        7.41827        4.76694
H          6.50522        5.65002        0.26856
H          4.54138        5.20011       10.36194
H          5.40056        3.88177       10.08219
H          3.24900        3.85038        0.81687
H          4.47640        2.54251        0.49236
H          0.35378        3.85038        1.35399
H          6.48356        3.04473        0.82806
H          0.71478       10.04448        5.86356
H          2.67862        0.03139        4.76694
H          1.81944        1.34973        4.48719
H          3.97100        1.38112        6.41187
H          2.74360        2.68899        6.08736
H          6.86622        1.38112        6.94899
H          0.73644        2.18677        6.42306
H          4.32478        0.41852       10.92144
H          6.28862       10.43161        0.82806
H          5.42944        9.11327        1.10781
H          0.36100        9.08188       10.37313
H          6.35360        7.77401       10.69764
H          3.25622        9.08188        9.83601
H          4.34644        8.27623       10.36194
C          1.51764        4.91447        3.80348
C          2.30029        5.62596        4.91800
C          1.35158        6.11353        5.99672
C          0.26064        7.03637        5.48758
C          6.58536        7.58358        6.59091
C          5.12764        5.54853        1.79152
C          5.91029        4.83704        0.67699
C          4.96158        4.34947       10.78828
C          3.87064        3.42663        0.10742
C          2.97536        2.87942       10.19409
C          2.09236       10.14597        7.38652
C          1.30971        0.39446        6.27199
C          2.25842        0.88203        5.19328
C          3.34936        1.80487        5.70242
C          4.24464        2.35208        4.59909
C          5.70236        0.31703        9.39848
C          4.91971       10.06854       10.51300
C          5.86842        9.58097        0.40172
C          6.95936        8.65813       11.08258
C          0.63464        8.11092        0.99591
N          3.12337        6.71620        4.36186
N          6.73337        3.74680        1.23314
N          0.48663        1.48470        6.82814
N          4.09663        8.97830        9.95686
O          1.63461        5.29951        2.62517
O          0.77326        3.96338        4.19177
O          5.52908        8.21032        6.20150
O          6.82001        7.41408        7.80167
O          5.24461        5.16349        2.96983
O          4.38326        6.49962        1.40323
O          1.91908        2.25268       10.58350
O          3.21001        3.04892        8.98333
O          1.97539        0.06801        8.56483
O          2.83674        9.19488        6.99823
O          5.30092        2.97882        4.98850
O          4.00999        2.18258        3.38833
O          5.58539       10.39499        8.22017
O          6.44674        1.26812        9.78677
O          1.69092        7.48418        0.60650
O          0.39999        8.28042        2.20667
